c 
p cnf 10 40
-8 -6 -9 0
4 -3 -1 0
-10 4 2 0
10 4 -1 0
-3 5 1 0
9 -1 7 0
1 -3 -7 0
-4 -5 -1 0
9 3 -7 0
-1 6 4 0
9 -3 -1 0
-5 7 9 0
-9 -1 6 0
2 -4 -3 0
-2 -7 -6 0
-1 -9 6 0
-6 5 8 0
-10 6 -8 0
-10 -6 -2 0
-2 8 9 0
-3 9 10 0
-6 1 -4 0
7 -8 -6 0
8 1 10 0
-3 6 4 0
-4 -7 -1 0
5 7 10 0
10 -6 7 0
3 8 -7 0
-5 -7 -4 0
-4 -7 -2 0
5 -6 -1 0
-2 7 -9 0
8 -7 2 0
1 -4 -5 0
-7 -8 6 0
9 -3 -2 0
-9 -4 3 0
-7 5 -3 0
3 10 -4 0
